# Objective value = 7.9588200000000015e+03
I_0_0 2675
I_0_1 3466
I_0_2 2934.99999999999
I_0_3 3840.99999999999
I_1_0 24
I_1_1 12
I_1_2 24
I_1_3 12
I_2_0 59
I_2_1 0
I_2_2 59
I_2_3 0
I_3_0 32
I_3_1 0
I_3_2 32
I_3_3 -2.7755575615628914e-17
I_4_0 99
I_4_1 0
I_4_2 99
I_4_3 0
I_5_0 178
I_5_1 89
I_5_2 178
I_5_3 8.8999999999999986e+01
I_6_0 78
I_6_1 39
I_6_2 78
I_6_3 39
I_7_0 15
I_7_1 15
I_7_2 15
I_7_3 -3.4694469519536142e-18
I_8_0 55
I_8_1 5.6291776795447390e-15
I_8_2 55
I_8_3 0
I_9_0 21
I_9_1 -3.26405569239796e-14
I_9_2 21
I_9_3 0
I_10_0 184
I_10_1 184
I_10_2 9.2000000000010075e+01
I_10_3 0
I_11_0 102
I_11_1 51
I_11_2 102
I_11_3 51
I_12_0 20
I_12_1 0
I_12_2 20
I_12_3 0
I_13_0 47
I_13_1 0
I_13_2 47
I_13_3 0
I_14_0 72
I_14_1 0
I_14_2 72
I_14_3 5.5511151231257827e-17
I_15_0 23
I_15_1 0
I_15_2 23
I_15_3 0
I_16_0 86
I_16_1 43
I_16_2 8.5999999999999986e+01
I_16_3 43
I_17_0 142
I_17_1 71
I_17_2 142
I_17_3 71
I_18_0 176
I_18_1 176
I_18_2 8.7999999999999986e+01
I_18_3 0
I_19_0 80
I_19_1 80
I_19_2 0
I_19_3 8.0000000000010075e+01
I_20_0 116
I_20_1 58
I_20_2 116
I_20_3 58
q_1_0_0 -7.91033905045424e-16
q_1_0_1 24
q_1_0_2 0
q_1_1_0 0
q_1_1_1 0
q_1_1_2 0
q_2_0_0 0
q_2_0_1 1.1799999999999999e+02
q_2_0_2 0
q_2_1_0 0
q_2_1_1 0
q_2_1_2 0
q_3_0_0 0
q_3_0_1 64
q_3_0_2 0
q_3_1_0 0
q_3_1_1 0
q_3_1_2 -5.5511151231257827e-17
q_4_0_0 0
q_4_0_1 198
q_4_0_2 0
q_4_1_0 0
q_4_1_1 0
q_4_1_2 0
q_5_0_0 0
q_5_0_1 0
q_5_0_2 0
q_5_1_0 0
q_5_1_1 178
q_5_1_2 0
q_6_0_0 0
q_6_0_1 0
q_6_0_2 0
q_6_1_0 0
q_6_1_1 7.8000000000000014e+01
q_6_1_2 0
q_7_0_0 15
q_7_0_1 0
q_7_0_2 0
q_7_1_0 0
q_7_1_1 15
q_7_1_2 4.4408920985006262e-16
q_8_0_0 5.7245874707234634e-15
q_8_0_1 110
q_8_0_2 0
q_8_1_0 -9.5409791178724390e-17
q_8_1_1 0
q_8_1_2 0
q_9_0_0 -3.26405569239796e-14
q_9_0_1 4.2000000000000036e+01
q_9_0_2 0
q_9_1_0 0
q_9_1_1 0
q_9_1_2 0
q_10_0_0 92
q_10_0_1 1.0075940082288071e-11
q_10_0_2 0
q_10_1_0 0
q_10_1_1 0
q_10_1_2 -1.0075273948473296e-11
q_11_0_0 0
q_11_0_1 0
q_11_0_2 0
q_11_1_0 0
q_11_1_1 102
q_11_1_2 0
q_12_0_0 0
q_12_0_1 40
q_12_0_2 0
q_12_1_0 0
q_12_1_1 0
q_12_1_2 0
q_13_0_0 0
q_13_0_1 0
q_13_0_2 0
q_13_1_0 0
q_13_1_1 94
q_13_1_2 0
q_14_0_0 0
q_14_0_1 0
q_14_0_2 1.1102230246251565e-16
q_14_1_0 0
q_14_1_1 144
q_14_1_2 0
q_15_0_0 0
q_15_0_1 0
q_15_0_2 0
q_15_1_0 0
q_15_1_1 46
q_15_1_2 0
q_16_0_0 0
q_16_0_1 86
q_16_0_2 0
q_16_1_0 0
q_16_1_1 0
q_16_1_2 0
q_17_0_0 0
q_17_0_1 0
q_17_0_2 0
q_17_1_0 0
q_17_1_1 142
q_17_1_2 0
q_18_0_0 8.7999999999999986e+01
q_18_0_1 0
q_18_0_2 0
q_18_1_0 0
q_18_1_1 0
q_18_1_2 0
q_19_0_0 80
q_19_0_1 0
q_19_0_2 160
q_19_1_0 0
q_19_1_1 0
q_19_1_2 1.0074893659021148e-11
q_20_0_0 0
q_20_0_1 116
q_20_0_2 0
q_20_1_0 0
q_20_1_1 0
q_20_1_2 0
y_0_0_0 1
y_0_0_1 1
y_0_0_2 1
y_0_1_0 0
y_0_1_1 1
y_0_1_2 0
y_1_0_0 -6.5919492087118670e-17
y_1_0_1 1.0000000000000002e+00
y_1_0_2 0
y_1_1_0 0
y_1_1_1 0
y_1_1_2 0
y_2_0_0 0
y_2_0_1 1
y_2_0_2 0
y_2_1_0 0
y_2_1_1 0
y_2_1_2 0
y_3_0_0 0
y_3_0_1 1
y_3_0_2 0
y_3_1_0 0
y_3_1_1 0
y_3_1_2 0
y_4_0_0 0
y_4_0_1 1
y_4_0_2 0
y_4_1_0 0
y_4_1_1 0
y_4_1_2 0
y_5_0_0 0
y_5_0_1 0
y_5_0_2 0
y_5_1_0 0
y_5_1_1 1
y_5_1_2 0
y_6_0_0 0
y_6_0_1 0
y_6_0_2 0
y_6_1_0 0
y_6_1_1 1
y_6_1_2 0
y_7_0_0 1
y_7_0_1 0
y_7_0_2 0
y_7_1_0 0
y_7_1_1 1
y_7_1_2 0
y_8_0_0 1.0408340855860843e-16
y_8_0_1 1
y_8_0_2 0
y_8_1_0 -1.7347234759768071e-18
y_8_1_1 0
y_8_1_2 0
y_9_0_0 -1.5543122344752192e-15
y_9_0_1 1
y_9_0_2 0
y_9_1_0 0
y_9_1_1 0
y_9_1_2 0
y_10_0_0 1
y_10_0_1 0
y_10_0_2 0
y_10_1_0 0
y_10_1_1 0
y_10_1_2 0
y_11_0_0 0
y_11_0_1 0
y_11_0_2 0
y_11_1_0 0
y_11_1_1 1
y_11_1_2 0
y_12_0_0 0
y_12_0_1 1
y_12_0_2 0
y_12_1_0 0
y_12_1_1 0
y_12_1_2 0
y_13_0_0 0
y_13_0_1 0
y_13_0_2 0
y_13_1_0 0
y_13_1_1 1
y_13_1_2 0
y_14_0_0 0
y_14_0_1 0
y_14_0_2 0
y_14_1_0 0
y_14_1_1 1
y_14_1_2 0
y_15_0_0 0
y_15_0_1 0
y_15_0_2 0
y_15_1_0 0
y_15_1_1 1
y_15_1_2 0
y_16_0_0 0
y_16_0_1 1
y_16_0_2 0
y_16_1_0 0
y_16_1_1 0
y_16_1_2 0
y_17_0_0 0
y_17_0_1 0
y_17_0_2 -2.1684043449710089e-19
y_17_1_0 0
y_17_1_1 1
y_17_1_2 0
y_18_0_0 9.9999999999999989e-01
y_18_0_1 0
y_18_0_2 0
y_18_1_0 0
y_18_1_1 0
y_18_1_2 0
y_19_0_0 1
y_19_0_1 0
y_19_0_2 1
y_19_1_0 0
y_19_1_1 0
y_19_1_2 0
y_20_0_0 0
y_20_0_1 1
y_20_0_2 0
y_20_1_0 0
y_20_1_1 0
y_20_1_2 0
x_0_1_0_0 0
x_0_1_0_1 0
x_0_1_0_2 0
x_0_1_1_0 0
x_0_1_1_1 0
x_0_1_1_2 0
x_0_2_0_0 0
x_0_2_0_1 0
x_0_2_0_2 0
x_0_2_1_0 0
x_0_2_1_1 0
x_0_2_1_2 0
x_0_3_0_0 0
x_0_3_0_1 0
x_0_3_0_2 0
x_0_3_1_0 0
x_0_3_1_1 0
x_0_3_1_2 0
x_0_4_0_0 0
x_0_4_0_1 0
x_0_4_0_2 0
x_0_4_1_0 0
x_0_4_1_1 0
x_0_4_1_2 0
x_0_5_0_0 0
x_0_5_0_1 0
x_0_5_0_2 0
x_0_5_1_0 0
x_0_5_1_1 0
x_0_5_1_2 0
x_0_6_0_0 0
x_0_6_0_1 0
x_0_6_0_2 0
x_0_6_1_0 0
x_0_6_1_1 0
x_0_6_1_2 0
x_0_7_0_0 0
x_0_7_0_1 0
x_0_7_0_2 0
x_0_7_1_0 0
x_0_7_1_1 1
x_0_7_1_2 0
x_0_8_0_0 0
x_0_8_0_1 0
x_0_8_0_2 0
x_0_8_1_0 0
x_0_8_1_1 0
x_0_8_1_2 0
x_0_9_0_0 0
x_0_9_0_1 0
x_0_9_0_2 0
x_0_9_1_0 0
x_0_9_1_1 0
x_0_9_1_2 0
x_0_10_0_0 1
x_0_10_0_1 0
x_0_10_0_2 0
x_0_10_1_0 0
x_0_10_1_1 0
x_0_10_1_2 0
x_0_11_0_0 0
x_0_11_0_1 0
x_0_11_0_2 0
x_0_11_1_0 0
x_0_11_1_1 0
x_0_11_1_2 0
x_0_12_0_0 0
x_0_12_0_1 1.0000000000000002e+00
x_0_12_0_2 0
x_0_12_1_0 0
x_0_12_1_1 0
x_0_12_1_2 0
x_0_13_0_0 0
x_0_13_0_1 0
x_0_13_0_2 0
x_0_13_1_0 0
x_0_13_1_1 1
x_0_13_1_2 0
x_0_14_0_0 0
x_0_14_0_1 0
x_0_14_0_2 0
x_0_14_1_0 0
x_0_14_1_1 0
x_0_14_1_2 0
x_0_15_0_0 0
x_0_15_0_1 0
x_0_15_0_2 0
x_0_15_1_0 0
x_0_15_1_1 0
x_0_15_1_2 0
x_0_16_0_0 0
x_0_16_0_1 9.9999999999999989e-01
x_0_16_0_2 0
x_0_16_1_0 0
x_0_16_1_1 0
x_0_16_1_2 0
x_0_17_0_0 0
x_0_17_0_1 0
x_0_17_0_2 -4.3368086899420177e-19
x_0_17_1_0 0
x_0_17_1_1 0
x_0_17_1_2 0
x_0_18_0_0 9.9999999999999978e-01
x_0_18_0_1 0
x_0_18_0_2 0
x_0_18_1_0 0
x_0_18_1_1 0
x_0_18_1_2 0
x_0_19_0_0 -1.0408340855860843e-16
x_0_19_0_1 0
x_0_19_0_2 2
x_0_19_1_0 0
x_0_19_1_1 0
x_0_19_1_2 0
x_0_20_0_0 0
x_0_20_0_1 0
x_0_20_0_2 0
x_0_20_1_0 0
x_0_20_1_1 0
x_0_20_1_2 0
x_1_2_0_0 0
x_1_2_0_1 1.0000000000000002e+00
x_1_2_0_2 0
x_1_2_1_0 0
x_1_2_1_1 0
x_1_2_1_2 0
x_1_3_0_0 0
x_1_3_0_1 0
x_1_3_0_2 0
x_1_3_1_0 0
x_1_3_1_1 0
x_1_3_1_2 0
x_1_4_0_0 0
x_1_4_0_1 0
x_1_4_0_2 0
x_1_4_1_0 0
x_1_4_1_1 0
x_1_4_1_2 0
x_1_5_0_0 0
x_1_5_0_1 0
x_1_5_0_2 0
x_1_5_1_0 0
x_1_5_1_1 0
x_1_5_1_2 0
x_1_6_0_0 6.1062266354383610e-16
x_1_6_0_1 0
x_1_6_0_2 0
x_1_6_1_0 0
x_1_6_1_1 0
x_1_6_1_2 0
x_1_7_0_0 0
x_1_7_0_1 0
x_1_7_0_2 0
x_1_7_1_0 0
x_1_7_1_1 0
x_1_7_1_2 0
x_1_8_0_0 -6.6613381477509392e-16
x_1_8_0_1 1.0000000000000004e+00
x_1_8_0_2 0
x_1_8_1_0 0
x_1_8_1_1 0
x_1_8_1_2 0
x_1_9_0_0 0
x_1_9_0_1 0
x_1_9_0_2 0
x_1_9_1_0 0
x_1_9_1_1 0
x_1_9_1_2 0
x_1_10_0_0 0
x_1_10_0_1 0
x_1_10_0_2 0
x_1_10_1_0 0
x_1_10_1_1 0
x_1_10_1_2 0
x_1_11_0_0 0
x_1_11_0_1 0
x_1_11_0_2 0
x_1_11_1_0 0
x_1_11_1_1 0
x_1_11_1_2 0
x_1_12_0_0 0
x_1_12_0_1 0
x_1_12_0_2 0
x_1_12_1_0 0
x_1_12_1_1 0
x_1_12_1_2 0
x_1_13_0_0 0
x_1_13_0_1 0
x_1_13_0_2 0
x_1_13_1_0 0
x_1_13_1_1 0
x_1_13_1_2 0
x_1_14_0_0 0
x_1_14_0_1 0
x_1_14_0_2 0
x_1_14_1_0 0
x_1_14_1_1 0
x_1_14_1_2 0
x_1_15_0_0 0
x_1_15_0_1 0
x_1_15_0_2 0
x_1_15_1_0 0
x_1_15_1_1 0
x_1_15_1_2 0
x_1_16_0_0 0
x_1_16_0_1 0
x_1_16_0_2 0
x_1_16_1_0 0
x_1_16_1_1 0
x_1_16_1_2 0
x_1_17_0_0 0
x_1_17_0_1 0
x_1_17_0_2 0
x_1_17_1_0 0
x_1_17_1_1 0
x_1_17_1_2 0
x_1_18_0_0 0
x_1_18_0_1 0
x_1_18_0_2 0
x_1_18_1_0 0
x_1_18_1_1 0
x_1_18_1_2 0
x_1_19_0_0 0
x_1_19_0_1 0
x_1_19_0_2 0
x_1_19_1_0 0
x_1_19_1_1 0
x_1_19_1_2 0
x_1_20_0_0 0
x_1_20_0_1 0
x_1_20_0_2 0
x_1_20_1_0 0
x_1_20_1_1 0
x_1_20_1_2 0
x_2_3_0_0 0
x_2_3_0_1 0
x_2_3_0_2 0
x_2_3_1_0 0
x_2_3_1_1 0
x_2_3_1_2 0
x_2_4_0_0 0
x_2_4_0_1 1
x_2_4_0_2 0
x_2_4_1_0 0
x_2_4_1_1 0
x_2_4_1_2 0
x_2_5_0_0 0
x_2_5_0_1 0
x_2_5_0_2 0
x_2_5_1_0 0
x_2_5_1_1 0
x_2_5_1_2 0
x_2_6_0_0 0
x_2_6_0_1 0
x_2_6_0_2 0
x_2_6_1_0 0
x_2_6_1_1 0
x_2_6_1_2 0
x_2_7_0_0 0
x_2_7_0_1 0
x_2_7_0_2 0
x_2_7_1_0 0
x_2_7_1_1 0
x_2_7_1_2 0
x_2_8_0_0 0
x_2_8_0_1 -6.5919492087118670e-17
x_2_8_0_2 0
x_2_8_1_0 0
x_2_8_1_1 0
x_2_8_1_2 0
x_2_9_0_0 0
x_2_9_0_1 0
x_2_9_0_2 0
x_2_9_1_0 0
x_2_9_1_1 0
x_2_9_1_2 0
x_2_10_0_0 0
x_2_10_0_1 0
x_2_10_0_2 0
x_2_10_1_0 0
x_2_10_1_1 0
x_2_10_1_2 0
x_2_11_0_0 0
x_2_11_0_1 0
x_2_11_0_2 0
x_2_11_1_0 0
x_2_11_1_1 0
x_2_11_1_2 0
x_2_12_0_0 0
x_2_12_0_1 0
x_2_12_0_2 0
x_2_12_1_0 0
x_2_12_1_1 0
x_2_12_1_2 0
x_2_13_0_0 0
x_2_13_0_1 0
x_2_13_0_2 0
x_2_13_1_0 0
x_2_13_1_1 0
x_2_13_1_2 0
x_2_14_0_0 0
x_2_14_0_1 0
x_2_14_0_2 0
x_2_14_1_0 0
x_2_14_1_1 0
x_2_14_1_2 0
x_2_15_0_0 0
x_2_15_0_1 0
x_2_15_0_2 0
x_2_15_1_0 0
x_2_15_1_1 0
x_2_15_1_2 0
x_2_16_0_0 0
x_2_16_0_1 0
x_2_16_0_2 0
x_2_16_1_0 0
x_2_16_1_1 0
x_2_16_1_2 0
x_2_17_0_0 0
x_2_17_0_1 0
x_2_17_0_2 0
x_2_17_1_0 0
x_2_17_1_1 0
x_2_17_1_2 0
x_2_18_0_0 0
x_2_18_0_1 0
x_2_18_0_2 0
x_2_18_1_0 0
x_2_18_1_1 0
x_2_18_1_2 0
x_2_19_0_0 0
x_2_19_0_1 0
x_2_19_0_2 0
x_2_19_1_0 0
x_2_19_1_1 0
x_2_19_1_2 0
x_2_20_0_0 0
x_2_20_0_1 0
x_2_20_0_2 0
x_2_20_1_0 0
x_2_20_1_1 0
x_2_20_1_2 0
x_3_4_0_0 0
x_3_4_0_1 0
x_3_4_0_2 0
x_3_4_1_0 0
x_3_4_1_1 0
x_3_4_1_2 0
x_3_5_0_0 0
x_3_5_0_1 0
x_3_5_0_2 0
x_3_5_1_0 0
x_3_5_1_1 0
x_3_5_1_2 0
x_3_6_0_0 1.2490009027033011e-15
x_3_6_0_1 0
x_3_6_0_2 0
x_3_6_1_0 0
x_3_6_1_1 0
x_3_6_1_2 0
x_3_7_0_0 0
x_3_7_0_1 0
x_3_7_0_2 0
x_3_7_1_0 0
x_3_7_1_1 0
x_3_7_1_2 0
x_3_8_0_0 5.1347814888913490e-16
x_3_8_0_1 0
x_3_8_0_2 0
x_3_8_1_0 0
x_3_8_1_1 0
x_3_8_1_2 0
x_3_9_0_0 -1.8041124150158794e-15
x_3_9_0_1 1
x_3_9_0_2 0
x_3_9_1_0 0
x_3_9_1_1 0
x_3_9_1_2 0
x_3_10_0_0 0
x_3_10_0_1 0
x_3_10_0_2 0
x_3_10_1_0 0
x_3_10_1_1 0
x_3_10_1_2 0
x_3_11_0_0 0
x_3_11_0_1 0
x_3_11_0_2 0
x_3_11_1_0 0
x_3_11_1_1 0
x_3_11_1_2 0
x_3_12_0_0 -1.0963452368173421e-15
x_3_12_0_1 9.9999999999999978e-01
x_3_12_0_2 0
x_3_12_1_0 0
x_3_12_1_1 0
x_3_12_1_2 0
x_3_13_0_0 0
x_3_13_0_1 0
x_3_13_0_2 0
x_3_13_1_0 0
x_3_13_1_1 0
x_3_13_1_2 0
x_3_14_0_0 0
x_3_14_0_1 0
x_3_14_0_2 8.6736173798840355e-19
x_3_14_1_0 0
x_3_14_1_1 0
x_3_14_1_2 0
x_3_15_0_0 6.5225602696727947e-16
x_3_15_0_1 0
x_3_15_0_2 0
x_3_15_1_0 0
x_3_15_1_1 0
x_3_15_1_2 0
x_3_16_0_0 0
x_3_16_0_1 0
x_3_16_0_2 0
x_3_16_1_0 0
x_3_16_1_1 0
x_3_16_1_2 0
x_3_17_0_0 0
x_3_17_0_1 0
x_3_17_0_2 0
x_3_17_1_0 0
x_3_17_1_1 0
x_3_17_1_2 0
x_3_18_0_0 0
x_3_18_0_1 0
x_3_18_0_2 0
x_3_18_1_0 0
x_3_18_1_1 0
x_3_18_1_2 0
x_3_19_0_0 0
x_3_19_0_1 0
x_3_19_0_2 0
x_3_19_1_0 0
x_3_19_1_1 0
x_3_19_1_2 0
x_3_20_0_0 0
x_3_20_0_1 0
x_3_20_0_2 0
x_3_20_1_0 0
x_3_20_1_1 0
x_3_20_1_2 0
x_4_5_0_0 0
x_4_5_0_1 0
x_4_5_0_2 0
x_4_5_1_0 0
x_4_5_1_1 0
x_4_5_1_2 0
x_4_6_0_0 0
x_4_6_0_1 0
x_4_6_0_2 0
x_4_6_1_0 0
x_4_6_1_1 0
x_4_6_1_2 0
x_4_7_0_0 0
x_4_7_0_1 0
x_4_7_0_2 0
x_4_7_1_0 0
x_4_7_1_1 0
x_4_7_1_2 0
x_4_8_0_0 0
x_4_8_0_1 0
x_4_8_0_2 0
x_4_8_1_0 0
x_4_8_1_1 0
x_4_8_1_2 0
x_4_9_0_0 0
x_4_9_0_1 0
x_4_9_0_2 0
x_4_9_1_0 0
x_4_9_1_1 0
x_4_9_1_2 0
x_4_10_0_0 0
x_4_10_0_1 0
x_4_10_0_2 0
x_4_10_1_0 0
x_4_10_1_1 0
x_4_10_1_2 0
x_4_11_0_0 0
x_4_11_0_1 0
x_4_11_0_2 0
x_4_11_1_0 0
x_4_11_1_1 0
x_4_11_1_2 0
x_4_12_0_0 0
x_4_12_0_1 0
x_4_12_0_2 0
x_4_12_1_0 0
x_4_12_1_1 0
x_4_12_1_2 0
x_4_13_0_0 0
x_4_13_0_1 0
x_4_13_0_2 0
x_4_13_1_0 0
x_4_13_1_1 0
x_4_13_1_2 0
x_4_14_0_0 0
x_4_14_0_1 0
x_4_14_0_2 0
x_4_14_1_0 0
x_4_14_1_1 0
x_4_14_1_2 0
x_4_15_0_0 0
x_4_15_0_1 0
x_4_15_0_2 0
x_4_15_1_0 0
x_4_15_1_1 0
x_4_15_1_2 0
x_4_16_0_0 0
x_4_16_0_1 0
x_4_16_0_2 0
x_4_16_1_0 0
x_4_16_1_1 0
x_4_16_1_2 0
x_4_17_0_0 0
x_4_17_0_1 0
x_4_17_0_2 0
x_4_17_1_0 0
x_4_17_1_1 0
x_4_17_1_2 0
x_4_18_0_0 0
x_4_18_0_1 0
x_4_18_0_2 0
x_4_18_1_0 0
x_4_18_1_1 0
x_4_18_1_2 0
x_4_19_0_0 0
x_4_19_0_1 0
x_4_19_0_2 0
x_4_19_1_0 0
x_4_19_1_1 0
x_4_19_1_2 0
x_4_20_0_0 0
x_4_20_0_1 1
x_4_20_0_2 0
x_4_20_1_0 0
x_4_20_1_1 0
x_4_20_1_2 0
x_5_6_0_0 0
x_5_6_0_1 0
x_5_6_0_2 0
x_5_6_1_0 0
x_5_6_1_1 0
x_5_6_1_2 0
x_5_7_0_0 0
x_5_7_0_1 0
x_5_7_0_2 0
x_5_7_1_0 0
x_5_7_1_1 0
x_5_7_1_2 0
x_5_8_0_0 0
x_5_8_0_1 0
x_5_8_0_2 0
x_5_8_1_0 0
x_5_8_1_1 0
x_5_8_1_2 0
x_5_9_0_0 0
x_5_9_0_1 0
x_5_9_0_2 0
x_5_9_1_0 0
x_5_9_1_1 0
x_5_9_1_2 0
x_5_10_0_0 0
x_5_10_0_1 0
x_5_10_0_2 0
x_5_10_1_0 0
x_5_10_1_1 0
x_5_10_1_2 0
x_5_11_0_0 4.5796699765787707e-16
x_5_11_0_1 0
x_5_11_0_2 0
x_5_11_1_0 0
x_5_11_1_1 1
x_5_11_1_2 0
x_5_12_0_0 0
x_5_12_0_1 0
x_5_12_0_2 0
x_5_12_1_0 0
x_5_12_1_1 0
x_5_12_1_2 0
x_5_13_0_0 0
x_5_13_0_1 0
x_5_13_0_2 0
x_5_13_1_0 0
x_5_13_1_1 0
x_5_13_1_2 0
x_5_14_0_0 -4.5796699765787707e-16
x_5_14_0_1 0
x_5_14_0_2 2.1684043449710089e-19
x_5_14_1_0 0
x_5_14_1_1 1
x_5_14_1_2 0
x_5_15_0_0 0
x_5_15_0_1 0
x_5_15_0_2 0
x_5_15_1_0 0
x_5_15_1_1 0
x_5_15_1_2 0
x_5_16_0_0 0
x_5_16_0_1 0
x_5_16_0_2 0
x_5_16_1_0 0
x_5_16_1_1 0
x_5_16_1_2 0
x_5_17_0_0 0
x_5_17_0_1 0
x_5_17_0_2 0
x_5_17_1_0 0
x_5_17_1_1 0
x_5_17_1_2 0
x_5_18_0_0 0
x_5_18_0_1 0
x_5_18_0_2 0
x_5_18_1_0 0
x_5_18_1_1 0
x_5_18_1_2 0
x_5_19_0_0 0
x_5_19_0_1 0
x_5_19_0_2 0
x_5_19_1_0 0
x_5_19_1_1 0
x_5_19_1_2 0
x_5_20_0_0 0
x_5_20_0_1 0
x_5_20_0_2 0
x_5_20_1_0 0
x_5_20_1_1 0
x_5_20_1_2 0
x_6_7_0_0 0
x_6_7_0_1 0
x_6_7_0_2 0
x_6_7_1_0 0
x_6_7_1_1 0
x_6_7_1_2 0
x_6_8_0_0 1.0408340855860843e-16
x_6_8_0_1 0
x_6_8_0_2 0
x_6_8_1_0 0
x_6_8_1_1 0
x_6_8_1_2 0
x_6_9_0_0 -1.0547118733938987e-15
x_6_9_0_1 0
x_6_9_0_2 0
x_6_9_1_0 0
x_6_9_1_1 0
x_6_9_1_2 0
x_6_10_0_0 0
x_6_10_0_1 0
x_6_10_0_2 0
x_6_10_1_0 0
x_6_10_1_1 0
x_6_10_1_2 0
x_6_11_0_0 0
x_6_11_0_1 0
x_6_11_0_2 0
x_6_11_1_0 0
x_6_11_1_1 0
x_6_11_1_2 0
x_6_12_0_0 -5.3429483060085659e-16
x_6_12_0_1 0
x_6_12_0_2 0
x_6_12_1_0 0
x_6_12_1_1 0
x_6_12_1_2 0
x_6_13_0_0 0
x_6_13_0_1 0
x_6_13_0_2 0
x_6_13_1_0 0
x_6_13_1_1 1
x_6_13_1_2 0
x_6_14_0_0 0
x_6_14_0_1 0
x_6_14_0_2 0
x_6_14_1_0 0
x_6_14_1_1 0
x_6_14_1_2 0
x_6_15_0_0 0
x_6_15_0_1 0
x_6_15_0_2 0
x_6_15_1_0 0
x_6_15_1_1 1
x_6_15_1_2 0
x_6_16_0_0 0
x_6_16_0_1 0
x_6_16_0_2 0
x_6_16_1_0 0
x_6_16_1_1 0
x_6_16_1_2 0
x_6_17_0_0 0
x_6_17_0_1 0
x_6_17_0_2 0
x_6_17_1_0 0
x_6_17_1_1 0
x_6_17_1_2 0
x_6_18_0_0 0
x_6_18_0_1 0
x_6_18_0_2 0
x_6_18_1_0 0
x_6_18_1_1 0
x_6_18_1_2 0
x_6_19_0_0 0
x_6_19_0_1 0
x_6_19_0_2 0
x_6_19_1_0 0
x_6_19_1_1 0
x_6_19_1_2 0
x_6_20_0_0 0
x_6_20_0_1 0
x_6_20_0_2 0
x_6_20_1_0 0
x_6_20_1_1 0
x_6_20_1_2 0
x_7_8_0_0 0
x_7_8_0_1 0
x_7_8_0_2 0
x_7_8_1_0 0
x_7_8_1_1 0
x_7_8_1_2 0
x_7_9_0_0 0
x_7_9_0_1 0
x_7_9_0_2 0
x_7_9_1_0 0
x_7_9_1_1 0
x_7_9_1_2 0
x_7_10_0_0 1
x_7_10_0_1 0
x_7_10_0_2 0
x_7_10_1_0 0
x_7_10_1_1 0
x_7_10_1_2 0
x_7_11_0_0 0
x_7_11_0_1 0
x_7_11_0_2 0
x_7_11_1_0 0
x_7_11_1_1 0
x_7_11_1_2 0
x_7_12_0_0 0
x_7_12_0_1 0
x_7_12_0_2 0
x_7_12_1_0 0
x_7_12_1_1 0
x_7_12_1_2 0
x_7_13_0_0 0
x_7_13_0_1 0
x_7_13_0_2 0
x_7_13_1_0 0
x_7_13_1_1 0
x_7_13_1_2 0
x_7_14_0_0 0
x_7_14_0_1 0
x_7_14_0_2 0
x_7_14_1_0 0
x_7_14_1_1 0
x_7_14_1_2 0
x_7_15_0_0 0
x_7_15_0_1 0
x_7_15_0_2 0
x_7_15_1_0 0
x_7_15_1_1 0
x_7_15_1_2 0
x_7_16_0_0 0
x_7_16_0_1 0
x_7_16_0_2 0
x_7_16_1_0 0
x_7_16_1_1 0
x_7_16_1_2 0
x_7_17_0_0 0
x_7_17_0_1 0
x_7_17_0_2 0
x_7_17_1_0 0
x_7_17_1_1 1
x_7_17_1_2 0
x_7_18_0_0 0
x_7_18_0_1 0
x_7_18_0_2 0
x_7_18_1_0 0
x_7_18_1_1 0
x_7_18_1_2 0
x_7_19_0_0 1
x_7_19_0_1 0
x_7_19_0_2 0
x_7_19_1_0 0
x_7_19_1_1 0
x_7_19_1_2 0
x_7_20_0_0 0
x_7_20_0_1 0
x_7_20_0_2 0
x_7_20_1_0 0
x_7_20_1_1 0
x_7_20_1_2 0
x_8_9_0_0 -4.0939474033052647e-16
x_8_9_0_1 1
x_8_9_0_2 0
x_8_9_1_0 0
x_8_9_1_1 0
x_8_9_1_2 0
x_8_10_0_0 0
x_8_10_0_1 0
x_8_10_0_2 0
x_8_10_1_0 0
x_8_10_1_1 0
x_8_10_1_2 0
x_8_11_0_0 0
x_8_11_0_1 0
x_8_11_0_2 0
x_8_11_1_0 0
x_8_11_1_1 0
x_8_11_1_2 0
x_8_12_0_0 5.30825383648903e-16
x_8_12_0_1 0
x_8_12_0_2 0
x_8_12_1_0 0
x_8_12_1_1 0
x_8_12_1_2 0
x_8_13_0_0 0
x_8_13_0_1 0
x_8_13_0_2 0
x_8_13_1_0 0
x_8_13_1_1 0
x_8_13_1_2 0
x_8_14_0_0 0
x_8_14_0_1 0
x_8_14_0_2 0
x_8_14_1_0 0
x_8_14_1_1 0
x_8_14_1_2 0
x_8_15_0_0 0
x_8_15_0_1 0
x_8_15_0_2 0
x_8_15_1_0 0
x_8_15_1_1 0
x_8_15_1_2 0
x_8_16_0_0 0
x_8_16_0_1 0
x_8_16_0_2 0
x_8_16_1_0 0
x_8_16_1_1 0
x_8_16_1_2 0
x_8_17_0_0 0
x_8_17_0_1 0
x_8_17_0_2 0
x_8_17_1_0 0
x_8_17_1_1 0
x_8_17_1_2 0
x_8_18_0_0 0
x_8_18_0_1 0
x_8_18_0_2 0
x_8_18_1_0 0
x_8_18_1_1 0
x_8_18_1_2 0
x_8_19_0_0 0
x_8_19_0_1 0
x_8_19_0_2 0
x_8_19_1_0 0
x_8_19_1_1 0
x_8_19_1_2 0
x_8_20_0_0 0
x_8_20_0_1 0
x_8_20_0_2 0
x_8_20_1_0 0
x_8_20_1_1 0
x_8_20_1_2 0
x_9_10_0_0 0
x_9_10_0_1 0
x_9_10_0_2 0
x_9_10_1_0 0
x_9_10_1_1 0
x_9_10_1_2 0
x_9_11_0_0 0
x_9_11_0_1 0
x_9_11_0_2 0
x_9_11_1_0 0
x_9_11_1_1 0
x_9_11_1_2 0
x_9_12_0_0 1.1241008124329710e-15
x_9_12_0_1 0
x_9_12_0_2 0
x_9_12_1_0 0
x_9_12_1_1 0
x_9_12_1_2 0
x_9_13_0_0 0
x_9_13_0_1 0
x_9_13_0_2 0
x_9_13_1_0 0
x_9_13_1_1 0
x_9_13_1_2 0
x_9_14_0_0 0
x_9_14_0_1 0
x_9_14_0_2 0
x_9_14_1_0 0
x_9_14_1_1 0
x_9_14_1_2 0
x_9_15_0_0 -1.1518563880486e-15
x_9_15_0_1 0
x_9_15_0_2 0
x_9_15_1_0 0
x_9_15_1_1 0
x_9_15_1_2 0
x_9_16_0_0 0
x_9_16_0_1 0
x_9_16_0_2 0
x_9_16_1_0 0
x_9_16_1_1 0
x_9_16_1_2 0
x_9_17_0_0 0
x_9_17_0_1 0
x_9_17_0_2 0
x_9_17_1_0 0
x_9_17_1_1 0
x_9_17_1_2 0
x_9_18_0_0 0
x_9_18_0_1 0
x_9_18_0_2 0
x_9_18_1_0 0
x_9_18_1_1 0
x_9_18_1_2 0
x_9_19_0_0 0
x_9_19_0_1 0
x_9_19_0_2 0
x_9_19_1_0 0
x_9_19_1_1 0
x_9_19_1_2 0
x_9_20_0_0 0
x_9_20_0_1 0
x_9_20_0_2 0
x_9_20_1_0 0
x_9_20_1_1 0
x_9_20_1_2 0
x_10_11_0_0 0
x_10_11_0_1 0
x_10_11_0_2 0
x_10_11_1_0 0
x_10_11_1_1 0
x_10_11_1_2 0
x_10_12_0_0 0
x_10_12_0_1 0
x_10_12_0_2 0
x_10_12_1_0 0
x_10_12_1_1 0
x_10_12_1_2 0
x_10_13_0_0 -6.3490879220751140e-16
x_10_13_0_1 0
x_10_13_0_2 0
x_10_13_1_0 0
x_10_13_1_1 0
x_10_13_1_2 0
x_10_14_0_0 0
x_10_14_0_1 0
x_10_14_0_2 0
x_10_14_1_0 0
x_10_14_1_1 0
x_10_14_1_2 0
x_10_15_0_0 0
x_10_15_0_1 0
x_10_15_0_2 0
x_10_15_1_0 0
x_10_15_1_1 0
x_10_15_1_2 0
x_10_16_0_0 0
x_10_16_0_1 0
x_10_16_0_2 0
x_10_16_1_0 0
x_10_16_1_1 0
x_10_16_1_2 0
x_10_17_0_0 4.4408920985006262e-16
x_10_17_0_1 0
x_10_17_0_2 0
x_10_17_1_0 0
x_10_17_1_1 0
x_10_17_1_2 0
x_10_18_0_0 0
x_10_18_0_1 0
x_10_18_0_2 0
x_10_18_1_0 0
x_10_18_1_1 0
x_10_18_1_2 0
x_10_19_0_0 3.2612801348363973e-16
x_10_19_0_1 0
x_10_19_0_2 0
x_10_19_1_0 0
x_10_19_1_1 0
x_10_19_1_2 0
x_10_20_0_0 0
x_10_20_0_1 0
x_10_20_0_2 0
x_10_20_1_0 0
x_10_20_1_1 0
x_10_20_1_2 0
x_11_12_0_0 0
x_11_12_0_1 0
x_11_12_0_2 0
x_11_12_1_0 0
x_11_12_1_1 0
x_11_12_1_2 0
x_11_13_0_0 0
x_11_13_0_1 0
x_11_13_0_2 0
x_11_13_1_0 0
x_11_13_1_1 0
x_11_13_1_2 0
x_11_14_0_0 0
x_11_14_0_1 0
x_11_14_0_2 0
x_11_14_1_0 0
x_11_14_1_1 0
x_11_14_1_2 0
x_11_15_0_0 0
x_11_15_0_1 0
x_11_15_0_2 0
x_11_15_1_0 0
x_11_15_1_1 0
x_11_15_1_2 0
x_11_16_0_0 0
x_11_16_0_1 0
x_11_16_0_2 0
x_11_16_1_0 0
x_11_16_1_1 0
x_11_16_1_2 0
x_11_17_0_0 -4.4408920985006262e-16
x_11_17_0_1 0
x_11_17_0_2 0
x_11_17_1_0 0
x_11_17_1_1 1
x_11_17_1_2 0
x_11_18_0_0 0
x_11_18_0_1 0
x_11_18_0_2 0
x_11_18_1_0 0
x_11_18_1_1 0
x_11_18_1_2 0
x_11_19_0_0 0
x_11_19_0_1 0
x_11_19_0_2 0
x_11_19_1_0 0
x_11_19_1_1 0
x_11_19_1_2 0
x_11_20_0_0 0
x_11_20_0_1 0
x_11_20_0_2 0
x_11_20_1_0 0
x_11_20_1_1 0
x_11_20_1_2 0
x_12_13_0_0 8.3266726846886741e-17
x_12_13_0_1 0
x_12_13_0_2 0
x_12_13_1_0 0
x_12_13_1_1 0
x_12_13_1_2 0
x_12_14_0_0 0
x_12_14_0_1 0
x_12_14_0_2 0
x_12_14_1_0 0
x_12_14_1_1 0
x_12_14_1_2 0
x_12_15_0_0 0
x_12_15_0_1 0
x_12_15_0_2 0
x_12_15_1_0 0
x_12_15_1_1 0
x_12_15_1_2 0
x_12_16_0_0 0
x_12_16_0_1 0
x_12_16_0_2 0
x_12_16_1_0 0
x_12_16_1_1 0
x_12_16_1_2 0
x_12_17_0_0 0
x_12_17_0_1 0
x_12_17_0_2 0
x_12_17_1_0 0
x_12_17_1_1 0
x_12_17_1_2 0
x_12_18_0_0 0
x_12_18_0_1 0
x_12_18_0_2 0
x_12_18_1_0 0
x_12_18_1_1 0
x_12_18_1_2 0
x_12_19_0_0 0
x_12_19_0_1 0
x_12_19_0_2 0
x_12_19_1_0 0
x_12_19_1_1 0
x_12_19_1_2 0
x_12_20_0_0 0
x_12_20_0_1 0
x_12_20_0_2 0
x_12_20_1_0 0
x_12_20_1_1 0
x_12_20_1_2 0
x_13_14_0_0 0
x_13_14_0_1 0
x_13_14_0_2 0
x_13_14_1_0 0
x_13_14_1_1 0
x_13_14_1_2 0
x_13_15_0_0 0
x_13_15_0_1 0
x_13_15_0_2 0
x_13_15_1_0 0
x_13_15_1_1 0
x_13_15_1_2 0
x_13_16_0_0 0
x_13_16_0_1 0
x_13_16_0_2 0
x_13_16_1_0 0
x_13_16_1_1 0
x_13_16_1_2 0
x_13_17_0_0 0
x_13_17_0_1 0
x_13_17_0_2 0
x_13_17_1_0 0
x_13_17_1_1 0
x_13_17_1_2 0
x_13_18_0_0 0
x_13_18_0_1 0
x_13_18_0_2 0
x_13_18_1_0 0
x_13_18_1_1 0
x_13_18_1_2 0
x_13_19_0_0 0
x_13_19_0_1 0
x_13_19_0_2 0
x_13_19_1_0 0
x_13_19_1_1 0
x_13_19_1_2 0
x_13_20_0_0 0
x_13_20_0_1 0
x_13_20_0_2 0
x_13_20_1_0 0
x_13_20_1_1 0
x_13_20_1_2 0
x_14_15_0_0 4.4408920985006262e-16
x_14_15_0_1 0
x_14_15_0_2 0
x_14_15_1_0 -1.7347234759768071e-18
x_14_15_1_1 1
x_14_15_1_2 0
x_14_16_0_0 0
x_14_16_0_1 0
x_14_16_0_2 0
x_14_16_1_0 0
x_14_16_1_1 0
x_14_16_1_2 0
x_14_17_0_0 0
x_14_17_0_1 0
x_14_17_0_2 0
x_14_17_1_0 0
x_14_17_1_1 0
x_14_17_1_2 0
x_14_18_0_0 0
x_14_18_0_1 0
x_14_18_0_2 0
x_14_18_1_0 0
x_14_18_1_1 0
x_14_18_1_2 0
x_14_19_0_0 0
x_14_19_0_1 0
x_14_19_0_2 0
x_14_19_1_0 0
x_14_19_1_1 0
x_14_19_1_2 0
x_14_20_0_0 0
x_14_20_0_1 0
x_14_20_0_2 0
x_14_20_1_0 0
x_14_20_1_1 0
x_14_20_1_2 0
x_15_16_0_0 0
x_15_16_0_1 0
x_15_16_0_2 0
x_15_16_1_0 0
x_15_16_1_1 0
x_15_16_1_2 0
x_15_17_0_0 0
x_15_17_0_1 0
x_15_17_0_2 0
x_15_17_1_0 0
x_15_17_1_1 0
x_15_17_1_2 0
x_15_18_0_0 0
x_15_18_0_1 0
x_15_18_0_2 0
x_15_18_1_0 0
x_15_18_1_1 0
x_15_18_1_2 0
x_15_19_0_0 0
x_15_19_0_1 0
x_15_19_0_2 0
x_15_19_1_0 0
x_15_19_1_1 0
x_15_19_1_2 0
x_15_20_0_0 0
x_15_20_0_1 0
x_15_20_0_2 0
x_15_20_1_0 0
x_15_20_1_1 0
x_15_20_1_2 0
x_16_17_0_0 0
x_16_17_0_1 0
x_16_17_0_2 0
x_16_17_1_0 0
x_16_17_1_1 0
x_16_17_1_2 0
x_16_18_0_0 0
x_16_18_0_1 0
x_16_18_0_2 0
x_16_18_1_0 0
x_16_18_1_1 0
x_16_18_1_2 0
x_16_19_0_0 0
x_16_19_0_1 0
x_16_19_0_2 0
x_16_19_1_0 0
x_16_19_1_1 0
x_16_19_1_2 0
x_16_20_0_0 0
x_16_20_0_1 1
x_16_20_0_2 0
x_16_20_1_0 0
x_16_20_1_1 0
x_16_20_1_2 0
x_17_18_0_0 0
x_17_18_0_1 0
x_17_18_0_2 0
x_17_18_1_0 0
x_17_18_1_1 0
x_17_18_1_2 0
x_17_19_0_0 0
x_17_19_0_1 0
x_17_19_0_2 0
x_17_19_1_0 0
x_17_19_1_1 0
x_17_19_1_2 0
x_17_20_0_0 0
x_17_20_0_1 0
x_17_20_0_2 0
x_17_20_1_0 0
x_17_20_1_1 0
x_17_20_1_2 0
x_18_19_0_0 9.9999999999999978e-01
x_18_19_0_1 0
x_18_19_0_2 0
x_18_19_1_0 0
x_18_19_1_1 0
x_18_19_1_2 0
x_18_20_0_0 0
x_18_20_0_1 0
x_18_20_0_2 0
x_18_20_1_0 0
x_18_20_1_1 0
x_18_20_1_2 0
x_19_20_0_0 0
x_19_20_0_1 0
x_19_20_0_2 0
x_19_20_1_0 0
x_19_20_1_1 0
x_19_20_1_2 0
